! MITSUBISHI RF POWER MOS FET 2SK2974
! S-PARAMETER DATA (TYPICAL)
! Test Conditions: Vdd = 7.2V, Id = 600mA, Tc = 25 deg C
! Source: Mitsubishi Electric Semiconductor Datasheet Nov. '97 (Page 3)
! Format: Frequency (MHz), S-parameters (Magnitude / Angle in Degrees)
! Port 1 = Gate, Port 2 = Drain (Source connected internally to GND)
# MHz S MA R 50
! FREQ       S11               S21               S12               S22
! [MHz]      MAG      ANG      MAG      ANG      MAG      ANG      MAG      ANG
   50.0    0.87151  -159.60    8.98850    91.52    0.02263     6.07    0.75544  -169.72
  100.0    0.87157  -168.20    4.47355    81.16    0.02175     0.64    0.77551  -171.14
  150.0    0.88083  -170.84    2.87870    72.54    0.02059    -2.36    0.78986  -172.22
  200.0    0.89043  -172.00    2.05082    67.12    0.01885    -2.75    0.80776  -171.94
  250.0    0.90037  -172.68    1.57746    61.73    0.01735    -1.35    0.83272  -171.89
  300.0    0.90814  -173.24    1.24044    57.26    0.01580     1.73    0.83624  -171.98
  350.0    0.91746  -173.67    1.01298    53.96    0.01446     7.63    0.85264  -172.07
  400.0    0.92499  -174.06    0.84559    50.79    0.01346    14.45    0.86892  -172.50
  450.0    0.93036  -174.43    0.71792    47.81    0.01268    22.24    0.87130  -172.39
  500.0    0.93571  -174.90    0.62459    45.83    0.01263    31.19    0.88564  -172.57
  550.0    0.93941  -175.30    0.54469    43.53    0.01272    40.32    0.89176  -172.90
  600.0    0.94226  -175.57    0.48199    41.64    0.01343    49.81    0.89413  -173.01
  650.0    0.94534  -176.04    0.42937    40.19    0.01496    57.67    0.90472  -173.39
  700.0    0.94808  -176.45    0.38937    38.62    0.01646    62.69    0.90807  -173.70
  750.0    0.95312  -176.90    0.35246    37.26    0.01744    67.33    0.91071  -173.95
  800.0    0.95459  -177.37    0.32860    36.44    0.01996    71.80    0.91875  -174.46
  850.0    0.95601  -177.87    0.29869    35.07    0.02182    74.16    0.91928  -174.80
  900.0    0.95774  -178.27    0.27468    34.17    0.02413    76.88    0.91707  -175.08
  950.0    0.95926  -178.87    0.25880    33.02    0.02631    76.43    0.92295  -175.88
 1000.0    0.96325  -179.62    0.24131    32.74    0.02817    78.74    0.92417  -176.19
 1050.0    0.96168   179.78    0.22658    31.90    0.03099    78.90    0.92742  -176.66
 1100.0    0.96230   179.39    0.21380    31.10    0.03270    78.48    0.93216  -177.69
 1150.0    0.96227   178.73    0.20166    30.57    0.03460    79.55    0.93331  -177.94
 1200.0    0.96198   178.34    0.19253    30.11    0.03660    80.40    0.93364  -178.72
 1250.0    0.96267   177.78    0.18153    30.73    0.03846    79.73    0.93557  -179.24
 1300.0    0.96118   176.97    0.17023    29.46    0.04065    80.54    0.93599  -179.44
 1350.0    0.96264   176.19    0.16501    29.51    0.04304    80.73    0.93290   179.28
 1400.0    0.96245   175.54    0.15789    29.47    0.04525    80.21    0.93594   178.62
 1450.0    0.96221   174.94    0.14964    29.25    0.04730    79.87    0.93314   178.32
 1500.0    0.96205   174.16    0.14381    29.66    0.04937    79.58    0.93009   177.13
